33D32945 STP File, STP Format Version 1.0

SECTION Comment
Name    "cancer10_6D"
Creator "S. A. Chowdhury, A. A. Schaffer, R. Schwartz"
Problem "Rectilinear Steiner Minimum Tree"
Remark  "Derived from a problem in (prostate) cancer research"
END

SECTION Graph 
Nodes 82
END

SECTION Coordinates
DDDDDD 1 2 2 2 2 2 2 
DDDDDD 2 1 2 1 2 2 2 
DDDDDD 3 2 2 2 2 3 2 
DDDDDD 4 3 2 2 1 2 2 
DDDDDD 5 1 3 1 2 2 3 
DDDDDD 6 2 3 2 2 2 2 
DDDDDD 7 3 2 1 2 3 2 
DDDDDD 8 3 2 2 2 2 2 
DDDDDD 9 3 2 2 2 4 2 
DDDDDD 10 3 3 2 2 2 2 
DDDDDD 11 3 1 2 2 3 2 
DDDDDD 12 3 3 2 1 3 2 
DDDDDD 13 2 1 1 3 2 2 
DDDDDD 14 2 2 2 1 2 2 
DDDDDD 15 2 4 2 2 2 2 
DDDDDD 16 2 4 2 2 2 3 
DDDDDD 17 3 2 2 1 3 2 
DDDDDD 18 3 2 2 2 3 2 
DDDDDD 19 3 4 2 2 3 2 
DDDDDD 20 1 2 1 2 2 1 
DDDDDD 21 1 2 2 2 2 2 
DDDDDD 22 1 3 2 2 2 2 
DDDDDD 23 1 3 3 2 2 3 
DDDDDD 24 1 4 2 2 3 2 
DDDDDD 25 2 1 2 2 2 2 
DDDDDD 26 2 1 2 2 3 2 
DDDDDD 27 2 1 2 2 4 2 
DDDDDD 28 2 2 1 2 2 2 
DDDDDD 29 2 2 2 1 3 2 
DDDDDD 30 2 2 2 2 1 2 
DDDDDD 31 2 2 2 2 2 1 
DDDDDD 32 2 2 2 2 2 3 
DDDDDD 33 2 2 2 2 3 1 
DDDDDD 34 2 2 2 2 3 3 
DDDDDD 35 2 2 2 2 4 2 
DDDDDD 36 2 2 3 2 2 2 
DDDDDD 37 2 3 1 2 2 2 
DDDDDD 38 2 3 2 0 3 1 
DDDDDD 39 2 3 2 2 1 2 
DDDDDD 40 2 3 2 2 2 3 
DDDDDD 41 2 3 2 2 3 2 
DDDDDD 42 2 3 2 2 4 2 
DDDDDD 43 2 3 3 2 2 2 
DDDDDD 44 2 3 3 2 3 2 
DDDDDD 45 2 4 2 2 3 5 
DDDDDD 46 3 1 2 2 2 2 
DDDDDD 47 3 2 1 2 2 2 
DDDDDD 48 3 2 2 1 2 3 
DDDDDD 49 3 2 2 2 2 1 
DDDDDD 50 3 2 2 2 2 3 
DDDDDD 51 3 2 2 2 3 3 
DDDDDD 52 3 2 2 2 5 2 
DDDDDD 53 3 2 2 3 2 2 
DDDDDD 54 3 2 2 3 3 2 
DDDDDD 55 3 2 3 2 1 2 
DDDDDD 56 3 2 3 2 2 2 
DDDDDD 57 3 3 1 2 3 2 
DDDDDD 58 3 3 2 2 1 2 
DDDDDD 59 3 3 2 2 2 1 
DDDDDD 60 3 3 2 2 2 3 
DDDDDD 61 3 3 2 2 3 2 
DDDDDD 62 3 3 2 3 2 2 
DDDDDD 63 3 4 2 2 2 2 
DDDDDD 64 3 5 2 2 2 2 
DDDDDD 65 4 2 2 2 2 2 
DDDDDD 66 4 2 2 2 2 3 
DDDDDD 67 4 2 2 2 3 2 
DDDDDD 68 4 3 2 2 2 2 
DDDDDD 69 5 1 2 2 2 2 
DDDDDD 70 5 3 2 2 3 2 
DDDDDD 71 5 3 3 2 3 3 
DDDDDD 72 2 2 1 2 2 3 
DDDDDD 73 2 2 2 3 2 2 
DDDDDD 74 3 2 2 2 1 2 
DDDDDD 75 3 2 2 2 1 3 
DDDDDD 76 3 2 2 2 2 4 
DDDDDD 77 3 3 2 2 3 3 
DDDDDD 78 4 1 2 2 3 2 
DDDDDD 79 4 2 2 2 1 3 
DDDDDD 80 3 2 4 2 3 2 
DDDDDD 81 3 3 2 3 2 1 
DDDDDD 82 3 2 3 1 3 2 
END

EOF
